% demand
num_movements = 28;
loading_factor = [1100, 1400, 1650, 1150, 1700, 1350, 1000, 1750, 1200, 1600, 1050, 1950, 950, 900, 1800, 1950, 1700, 2000, 850, 1750, 1250, 1950, 1600, 900, 1700, 1600, 1300, 1300];
pickup_time = [0, 0, 0, 0, 0, 1, 1, 1, 1, 1, 2, 2, 2, 3, 3, 3, 3, 4, 5, 5, 7, 8, 9, 9, 10, 10, 11, 13];
delivery_time = [1, 1, 1, 1, 1, 3, 2, 2, 3, 2, 3, 3, 3, 4, 5, 7, 4, 7, 7, 7, 9, 14, 14, 10, 12, 11, 14, 14];

% transporter definition
total_capacity = 7000;
num_decks = 3;
capacity = [3000, 1000, 3000];

% ways out of decks
num_ways_out = 1;
paths_out = array3d(decks, ways_out, decks, [
% ways out of deck d1
2, 3, 0, 

% ways out of deck d2
3, 0, 0, 

% ways out of deck d3
0, 0, 0,	

]);

